Version identifier: 22.1.0.0 | 2022-03-09 | 1a383f8ce
CPXPARAM_Threads                                 1
CPXPARAM_MIP_Strategy_VariableSelect             3
CPXPARAM_TimeLimit                               599.99998498599996
1 of 1 MIP starts provided solutions.
MIP start 'm1' defined initial solution with objective 1.0000.
Tried aggregator 2 times.
MIP Presolve eliminated 34 rows and 1 columns.
MIP Presolve added 28 rows and 7 columns.
MIP Presolve modified 105 coefficients.
Aggregator did 7 substitutions.
Reduced MIP has 613 rows, 2600 columns, and 32648 nonzeros.
Reduced MIP has 2600 binaries, 0 generals, 0 SOSs, and 0 indicators.
Presolve time = 0.05 sec. (68.18 ticks)
Probing time = 0.01 sec. (9.55 ticks)
Tried aggregator 1 time.
Detecting symmetries...
MIP Presolve modified 11 coefficients.
Reduced MIP has 613 rows, 2600 columns, and 33051 nonzeros.
Reduced MIP has 2600 binaries, 0 generals, 0 SOSs, and 0 indicators.
Presolve time = 0.03 sec. (34.81 ticks)
Probing time = 0.01 sec. (9.62 ticks)
Clique table members: 399.
MIP emphasis: balance optimality and feasibility.
MIP search method: dynamic search.
Parallel mode: none, using 1 thread.
Root relaxation solution time = 0.30 sec. (355.76 ticks)

        Nodes                                         Cuts/
   Node  Left     Objective  IInf  Best Integer    Best Bound    ItCnt     Gap

*     0+    0                            1.0000     5050.0000              --- 
      0     0      100.0000   449        1.0000      100.0000     2452     --- 
      0     0      100.0000   332        1.0000       Cuts: 7     3548     --- 
      0     0      100.0000   346        1.0000       Cuts: 9     4328     --- 
      0     0      100.0000   335        1.0000      Cuts: 10     6671     --- 
*     0+    0                           38.0000      100.0000           163.16%
*     0+    0                           77.0000      100.0000            29.87%
*     0+    0                           85.0000      100.0000            17.65%
      0     0        cutoff             85.0000      100.0000     6671   17.65%
      0     0      100.0000   418       85.0000       Cuts: 4     7330   17.65%
Detecting symmetries...
      0     2      100.0000   280       85.0000      100.0000     7330   17.65%
Elapsed time = 15.58 sec. (17125.69 ticks, tree = 0.01 MB, solutions = 4)
      1     3      100.0000   312       85.0000      100.0000    10614   17.65%
      2     4      100.0000   371       85.0000      100.0000    13289   17.65%
      3     4      100.0000   257       85.0000      100.0000    16704   17.65%
      5     6      100.0000   210       85.0000      100.0000    20922   17.65%
      6     7      100.0000   202       85.0000      100.0000    22852   17.65%
      7     8      100.0000   168       85.0000      100.0000    26038   17.65%
      8     9      100.0000   198       85.0000      100.0000    28613   17.65%
      9     9       99.8000   319       85.0000      100.0000    31042   17.65%
     11    10       99.0000   316       85.0000      100.0000    33832   17.65%
     15    12       99.0000   315       85.0000      100.0000    41800   17.65%
Elapsed time = 20.89 sec. (22926.08 ticks, tree = 0.05 MB, solutions = 4)
     18    14       99.0000   247       85.0000      100.0000    48959   17.65%
     24    19       99.0000   243       85.0000      100.0000    52677   17.65%
     30    24       99.0000   129       85.0000      100.0000    57370   17.65%
     36    29       99.0000   313       85.0000      100.0000    64068   17.65%
     43    34       97.0000   147       85.0000      100.0000    72869   17.65%
*    50+   30                           97.0000      100.0000             3.09%
     50    28       97.0000     0       97.0000      100.0000    77029    3.09%
     56    29    infeasible             97.0000      100.0000    83806    3.09%
     65    33       99.0000   213       97.0000      100.0000    89072    3.09%
     72    36       99.0000   217       97.0000      100.0000    92118    3.09%
     81    41       98.0000   239       97.0000      100.0000    97508    3.09%
Elapsed time = 30.60 sec. (33323.27 ticks, tree = 0.09 MB, solutions = 5)
     91    42       98.0000   245       97.0000      100.0000   103707    3.09%
    101    48       99.0000   144       97.0000      100.0000   109917    3.09%
    109    50       98.0000   281       97.0000      100.0000   118690    3.09%
    117    52      100.0000   207       97.0000      100.0000   122864    3.09%
    120    54       99.0000   355       97.0000      100.0000   130817    3.09%
    128    62       99.0000   291       97.0000      100.0000   132210    3.09%
    138    70       99.0000   250       97.0000      100.0000   133782    3.09%
    147    79       99.0000   184       97.0000      100.0000   136127    3.09%
    158    87       98.0000   144       97.0000      100.0000   138675    3.09%
    171    92    infeasible             97.0000      100.0000   141988    3.09%
Elapsed time = 40.23 sec. (43734.14 ticks, tree = 0.14 MB, solutions = 5)
    184    95       98.0000   165       97.0000      100.0000   144375    3.09%
    202    95       98.0000   157       97.0000      100.0000   147788    3.09%
    222    95       98.0000   172       97.0000      100.0000   151677    3.09%
    242    95    infeasible             97.0000      100.0000   155909    3.09%
    248    99      100.0000   206       97.0000      100.0000   159372    3.09%
    255   105       99.0000   332       97.0000      100.0000   161488    3.09%
    261   111       99.0000   315       97.0000      100.0000   162744    3.09%
    269   116       98.0000   257       97.0000      100.0000   164871    3.09%
    279   118       98.0000   203       97.0000      100.0000   168853    3.09%
    293   118       98.0000   206       97.0000      100.0000   172097    3.09%
Elapsed time = 49.38 sec. (53854.38 ticks, tree = 0.17 MB, solutions = 5)
    304   119       98.0000   192       97.0000      100.0000   176310    3.09%
    318   123    infeasible             97.0000      100.0000   179506    3.09%
    336   125       98.0000   174       97.0000      100.0000   183301    3.09%
    346   126       99.0000   335       97.0000      100.0000   187074    3.09%
    352   131       98.0000   288       97.0000      100.0000   190264    3.09%
    362   135    infeasible             97.0000      100.0000   193971    3.09%
    375   136       98.0000   180       97.0000      100.0000   197937    3.09%
    386   138       99.0000   375       97.0000      100.0000   201523    3.09%
    392   142       99.0000   414       97.0000      100.0000   204776    3.09%
    397   145       99.8889   393       97.0000      100.0000   210090    3.09%
Elapsed time = 58.34 sec. (64159.92 ticks, tree = 0.19 MB, solutions = 5)
    401   147       99.0000   325       97.0000      100.0000   219492    3.09%
    406   150       99.0000   407       97.0000      100.0000   222900    3.09%
    411   153      100.0000   272       97.0000      100.0000   227610    3.09%
    417   156       99.8462   368       97.0000      100.0000   234907    3.09%
    420   157       99.0000   282       97.0000      100.0000   236101    3.09%
    427   164       99.0000   344       97.0000      100.0000   239554    3.09%
    433   169       98.0000   319       97.0000      100.0000   241375    3.09%
    442   174    infeasible             97.0000      100.0000   242918    3.09%
    452   176       99.0000   265       97.0000      100.0000   245530    3.09%
    462   176       99.0000   265       97.0000      100.0000   248174    3.09%
Elapsed time = 68.85 sec. (76168.38 ticks, tree = 0.30 MB, solutions = 5)
    471   179       99.0000   257       97.0000      100.0000   251123    3.09%
    480   185       98.0000   200       97.0000      100.0000   253218    3.09%
    488   188       99.9500   424       97.0000      100.0000   258360    3.09%
    494   193       99.0000   382       97.0000      100.0000   261023    3.09%
    502   201       99.0000   332       97.0000      100.0000   263918    3.09%
    511   207       98.0000   306       97.0000      100.0000   268304    3.09%
    520   212       98.0000   213       97.0000      100.0000   275942    3.09%
    529   217       98.0000   235       97.0000      100.0000   286651    3.09%
    541   217    infeasible             97.0000      100.0000   300451    3.09%
    555   217    infeasible             97.0000      100.0000   313401    3.09%
Elapsed time = 79.37 sec. (87089.17 ticks, tree = 0.56 MB, solutions = 5)
    566   218    infeasible             97.0000      100.0000   330408    3.09%
    574   220      100.0000   360       97.0000      100.0000   341358    3.09%
    580   226      100.0000   319       97.0000      100.0000   346501    3.09%
    582   227       99.0000   424       97.0000      100.0000   356098    3.09%
    590   232       98.0000   366       97.0000      100.0000   362485    3.09%
    599   237       98.0000   297       97.0000      100.0000   370022    3.09%
    608   240       98.0000   166       97.0000      100.0000   385353    3.09%
    617   239    infeasible             97.0000      100.0000   407200    3.09%
    624   240       98.0000    80       97.0000      100.0000   416283    3.09%
    628   240       98.0000   128       97.0000      100.0000   424100    3.09%
Elapsed time = 89.65 sec. (97389.28 ticks, tree = 0.70 MB, solutions = 5)
    637   239      100.0000   245       97.0000      100.0000   429985    3.09%
    640   242      100.0000   280       97.0000      100.0000   431682    3.09%
    642   244      100.0000   219       97.0000      100.0000   438740    3.09%
    647   248       99.0000   307       97.0000      100.0000   443413    3.09%
    655   256       99.0000   266       97.0000      100.0000   444813    3.09%
    664   265       99.0000   250       97.0000      100.0000   445690    3.09%
    674   272       98.0000   234       97.0000      100.0000   447260    3.09%
    686   274    infeasible             97.0000      100.0000   450869    3.09%
    700   274    infeasible             97.0000      100.0000   454828    3.09%
    714   274    infeasible             97.0000      100.0000   458868    3.09%
Elapsed time = 99.38 sec. (108064.79 ticks, tree = 0.92 MB, solutions = 5)
    729   277       98.0000   137       97.0000      100.0000   462018    3.09%
    739   278       99.0000   284       97.0000      100.0000   465396    3.09%
    746   284       98.0000   205       97.0000      100.0000   468367    3.09%
    756   286    infeasible             97.0000      100.0000   471486    3.09%
    765   289       98.0000   173       97.0000      100.0000   474894    3.09%
    777   291    infeasible             97.0000      100.0000   478069    3.09%
    783   292       99.0000   382       97.0000      100.0000   481310    3.09%
    789   295       99.0000   396       97.0000      100.0000   484894    3.09%
    795   301       99.0000   299       97.0000      100.0000   486371    3.09%
    817   318       99.0000   300       97.0000      100.0000   497334    3.09%
Elapsed time = 110.96 sec. (121157.52 ticks, tree = 1.18 MB, solutions = 5)
    857   333      100.0000   254       97.0000      100.0000   508262    3.09%
    885   356    infeasible             97.0000      100.0000   515139    3.09%
    942   370       98.0000   220       97.0000      100.0000   526519    3.09%
    973   383    infeasible             97.0000      100.0000   535159    3.09%
   1017   385       98.0000   222       97.0000      100.0000   549326    3.09%
   1057   394       99.0000   306       97.0000      100.0000   560955    3.09%
   1098   408       98.0000   162       97.0000      100.0000   573200    3.09%
   1128   428       98.0000   292       97.0000      100.0000   582770    3.09%
   1154   443       99.9032   418       97.0000      100.0000   595596    3.09%
   1160   447       99.0000   426       97.0000      100.0000   603882    3.09%
Elapsed time = 146.98 sec. (160740.24 ticks, tree = 1.97 MB, solutions = 5)
   1182   463       99.0000   292       97.0000      100.0000   631764    3.09%
   1223   479       98.0000   306       97.0000      100.0000   667670    3.09%
   1266   486       98.0000   157       97.0000      100.0000   717398    3.09%
   1300   503       99.0000   260       97.0000      100.0000   756356    3.09%
   1333   523       98.0000   378       97.0000      100.0000   786457    3.09%
   1369   559       98.0000   296       97.0000      100.0000   789585    3.09%
   1399   584       99.0000   292       97.0000      100.0000   805366    3.09%
   1427   601       99.0000   303       97.0000      100.0000   839548    3.09%
   1434   602       99.0000   358       97.0000      100.0000   855629    3.09%
   1435   602       99.0000   359       97.0000      100.0000   857872    3.09%
Elapsed time = 195.44 sec. (210023.96 ticks, tree = 2.95 MB, solutions = 5)

Performing restart 1

Repeating presolve.
Tried aggregator 1 time.
MIP Presolve eliminated 0 rows and 97 columns.
MIP Presolve modified 7356 coefficients.
Reduced MIP has 613 rows, 2503 columns, and 24318 nonzeros.
Reduced MIP has 2503 binaries, 0 generals, 0 SOSs, and 0 indicators.
Presolve time = 0.02 sec. (21.58 ticks)
Tried aggregator 1 time.
Reduced MIP has 613 rows, 2503 columns, and 24318 nonzeros.
Reduced MIP has 2503 binaries, 0 generals, 0 SOSs, and 0 indicators.
Presolve time = 0.02 sec. (16.67 ticks)
Represolve time = 0.15 sec. (97.27 ticks)
   1436     0      100.0000   360       97.0000       Cuts: 7   861028    3.09%
   1436     0      100.0000   431       97.0000      Cuts: 17   863107    3.09%
   1436     0      100.0000   474       97.0000      Cuts: 21   865319    3.09%
   1436     0      100.0000   311       97.0000      Cuts: 12   866144    3.09%
   1436     0      100.0000   452       97.0000      Cuts: 19   868393    3.09%
   1436     0      100.0000   479       97.0000      Cuts: 18   871753    3.09%
   1436     2      100.0000   316       97.0000      100.0000   871753    3.09%
   1445     8       99.0000   486       97.0000      100.0000   890703    3.09%
   1453    14       99.0000   386       97.0000      100.0000   903612    3.09%
   1463    22      100.0000   387       97.0000      100.0000   920301    3.09%
   1472    29      100.0000   360       97.0000      100.0000   939423    3.09%
   1495    45      100.0000   309       97.0000      100.0000   972027    3.09%
   1509    55      100.0000   319       97.0000      100.0000   990607    3.09%
   1531    70      100.0000   317       97.0000      100.0000  1018992    3.09%
   1536    75      100.0000   304       97.0000      100.0000  1024317    3.09%
   1569    97       99.0000   306       97.0000      100.0000  1049400    3.09%
Elapsed time = 247.06 sec. (265685.63 ticks, tree = 0.14 MB, solutions = 5)
   1610   103       98.0000   253       97.0000      100.0000  1088617    3.09%
   1668   119       98.0000   168       97.0000      100.0000  1119450    3.09%
   1700   135       99.0000   299       97.0000      100.0000  1142550    3.09%
   1746   147    infeasible             97.0000      100.0000  1178410    3.09%
   1785   157       98.0000   239       97.0000      100.0000  1214589    3.09%
   1814   162    infeasible             97.0000      100.0000  1246460    3.09%
   1853   169    infeasible             97.0000      100.0000  1290035    3.09%
   1892   182       98.0000   242       97.0000      100.0000  1311665    3.09%
   1937   183      100.0000   357       97.0000      100.0000  1341285    3.09%
   1960   200      100.0000   352       97.0000      100.0000  1372913    3.09%
Elapsed time = 285.55 sec. (304380.78 ticks, tree = 0.26 MB, solutions = 5)
   1982   213      100.0000   350       97.0000      100.0000  1406462    3.09%
   2000   227      100.0000   346       97.0000      100.0000  1430915    3.09%
   2029   244    infeasible             97.0000      100.0000  1451984    3.09%
   2062   251       99.7000   370       97.0000      100.0000  1483583    3.09%
   2103   260       99.0000   326       97.0000      100.0000  1511800    3.09%
   2153   273    infeasible             97.0000      100.0000  1537884    3.09%
   2192   286       99.0000   284       97.0000      100.0000  1563608    3.09%
   2228   301       98.0000   207       97.0000      100.0000  1596581    3.09%
   2276   308       98.0000   252       97.0000      100.0000  1629121    3.09%
   2309   327       98.0000   161       97.0000      100.0000  1663708    3.09%
Elapsed time = 323.75 sec. (343326.84 ticks, tree = 0.41 MB, solutions = 5)
   2342   345       98.0000   238       97.0000      100.0000  1695482    3.09%
   2373   358       98.0000   280       97.0000      100.0000  1732003    3.09%
   2396   370       99.0000   396       97.0000      100.0000  1754655    3.09%
   2430   377    infeasible             97.0000      100.0000  1822399    3.09%
   2467   378    infeasible             97.0000      100.0000  1904729    3.09%
   2482   385       99.0000   354       97.0000      100.0000  1933971    3.09%
   2509   389       99.0000   306       97.0000      100.0000  1962300    3.09%
   2541   394    infeasible             97.0000      100.0000  1995639    3.09%
   2580   399    infeasible             97.0000      100.0000  2036143    3.09%
   2608   426       99.0000   402       97.0000      100.0000  2041413    3.09%
Elapsed time = 363.04 sec. (382508.76 ticks, tree = 0.52 MB, solutions = 5)
   2638   450       98.0000   240       97.0000      100.0000  2056193    3.09%
   2667   465       99.0000   249       97.0000      100.0000  2083456    3.09%
   2694   468       99.0000   268       97.0000      100.0000  2134226    3.09%
   2730   474       99.0000   326       97.0000      100.0000  2187314    3.09%
   2765   486       98.0000   339       97.0000      100.0000  2229914    3.09%
   2801   494       98.0000   236       97.0000      100.0000  2257156    3.09%
   2836   503       98.0000   127       97.0000      100.0000  2282625    3.09%
   2870   516       98.0000   216       97.0000      100.0000  2317330    3.09%
   2935   525    infeasible             97.0000      100.0000  2353737    3.09%
   2976   528      100.0000   311       97.0000      100.0000  2381551    3.09%
Elapsed time = 405.77 sec. (424059.39 ticks, tree = 0.66 MB, solutions = 5)
   3015   542       99.0000   360       97.0000      100.0000  2410415    3.09%
   3044   551       99.0000   339       97.0000      100.0000  2440643    3.09%
   3083   567       99.0000   306       97.0000      100.0000  2476002    3.09%
   3116   578       99.0000   346       97.0000      100.0000  2517607    3.09%
   3140   594       98.0000   253       97.0000      100.0000  2563391    3.09%
   3158   605       99.0000   218       97.0000      100.0000  2616510    3.09%
   3176   612      100.0000   310       97.0000      100.0000  2671955    3.09%
   3199   619    infeasible             97.0000      100.0000  2706794    3.09%
   3242   618      100.0000   329       97.0000      100.0000  2758584    3.09%
   3275   637    infeasible             97.0000      100.0000  2787240    3.09%
Elapsed time = 445.62 sec. (462936.76 ticks, tree = 0.79 MB, solutions = 5)
   3310   648       98.0000   210       97.0000      100.0000  2817774    3.09%
   3342   655       98.0000   254       97.0000      100.0000  2857891    3.09%
   3371   658    infeasible             97.0000      100.0000  2907499    3.09%
   3399   662    infeasible             97.0000      100.0000  2961537    3.09%
   3429   671       99.0000   374       97.0000      100.0000  3012591    3.09%
   3448   687       98.0000   231       97.0000      100.0000  3021226    3.09%
   3482   699       99.0000   322       97.0000      100.0000  3030067    3.09%
   3517   731       98.0000   349       97.0000      100.0000  3032231    3.09%
   3552   766       98.0000   300       97.0000      100.0000  3034614    3.09%
   3586   800       98.0000   260       97.0000      100.0000  3038202    3.09%
Elapsed time = 483.77 sec. (501634.92 ticks, tree = 0.97 MB, solutions = 5)
   3616   825       99.0000   317       97.0000      100.0000  3045132    3.09%
   3653   839    infeasible             97.0000      100.0000  3054389    3.09%
   3687   850       99.0000   303       97.0000      100.0000  3063603    3.09%
   3723   856    infeasible             97.0000      100.0000  3076542    3.09%
   3752   865       99.0000   253       97.0000      100.0000  3088443    3.09%
   3777   876       98.0000   298       97.0000      100.0000  3101297    3.09%
   3823   886       98.0000   248       97.0000      100.0000  3113582    3.09%
   3883   886       98.0000   258       97.0000      100.0000  3126969    3.09%
   3921   902       98.0000   234       97.0000      100.0000  3135484    3.09%
   3949   914       98.0000   281       97.0000      100.0000  3145596    3.09%
Elapsed time = 519.22 sec. (540284.30 ticks, tree = 1.10 MB, solutions = 5)
   3994   927       98.0000   158       97.0000      100.0000  3156899    3.09%
   4050   929       98.0000   351       97.0000      100.0000  3170665    3.09%
   4097   938    infeasible             97.0000      100.0000  3181786    3.09%
   4159   944       98.0000   182       97.0000      100.0000  3196886    3.09%
   4192   952       99.8000   328       97.0000      100.0000  3208774    3.09%
   4212   967      100.0000   378       97.0000      100.0000  3217254    3.09%
Starting limited solution polishing.
   4236   983       99.0000   256       97.0000      100.0000  3225401    3.09%
   4258   992       98.0000   167       97.0000      100.0000  3240499    3.09%
   4288   999    infeasible             97.0000      100.0000  3252913    3.09%
   4330  1008       98.0000   202       97.0000      100.0000  3264673    3.09%
Elapsed time = 555.19 sec. (579390.60 ticks, tree = 1.21 MB, solutions = 5)
   4336  1008       98.0000   216       97.0000      100.0000  3266216    3.09%
   4369  1013       98.0000   295       97.0000      100.0000  3278346    3.09%
   4414  1030      100.0000   341       97.0000      100.0000  3286355    3.09%
   4445  1044       98.0000   175       97.0000      100.0000  3297282    3.09%
   4479  1053      100.0000   365       97.0000      100.0000  3306426    3.09%
   4506  1064       99.0000   336       97.0000      100.0000  3319489    3.09%
   4538  1077       99.0000   300       97.0000      100.0000  3330213    3.09%
   4579  1087    infeasible             97.0000      100.0000  3343478    3.09%
   4634  1091       99.0000   338       97.0000      100.0000  3359889    3.09%
   4672  1102       98.0000   194       97.0000      100.0000  3367991    3.09%
Elapsed time = 594.38 sec. (620529.29 ticks, tree = 1.36 MB, solutions = 5)
   4734  1104    infeasible             97.0000      100.0000  3382123    3.09%

Clique cuts applied:  60
Zero-half cuts applied:  43
Lift and project cuts applied:  1
Gomory fractional cuts applied:  2

Root node processing (before b&c):
  Real time             =   15.54 sec. (17097.54 ticks)
Sequential b&c:
  Real time             =  584.46 sec. (609334.73 ticks)
                          ------------
Total (root+branch&cut) =  600.00 sec. (626432.27 ticks)
Primal:	97
Dual:	100
Status:	Feasible
Time:	599.96
Sequence:
	15
	4
	20
	12
	4
	0
	12
	16
	6
	1
	7
	1
	6
	5
	4
	19
	7
	1
	6
	5
	14
	1
	7
	17
	6
	16
	4
	18
	8
	1
	2
	10
	4
	18
	8
	19
	9
	10
	4
	17
	13
	17
	4
	10
	9
	19
	8
	1
	12
	0
	4
	15
	24
	1
	9
	10
	4
	0
	4
	21
	7
	1
	6
	3
	6
	16
	12
	0
	4
	17
	13
	1
	6
	3
	4
	22
	3
	6
	1
	7
	17
	14
	0
	12
	4
	0
	23
	4
	10
	9
	1
	24
	15
	4
	0
	12
	19
